c "565894.clq"
p edge 150 584
e 1 5
e 1 6
e 1 7
e 1 11
e 1 12
e 1 13
e 1 17
e 1 22
e 1 27
e 1 41
e 1 57
e 1 67
e 1 84
e 1 94
e 1 111
e 1 115
e 1 130
e 2 5
e 2 16
e 2 67
e 3 5
e 3 6
e 3 8
e 3 9
e 3 10
e 3 14
e 3 19
e 3 21
e 3 22
e 3 24
e 3 25
e 3 31
e 3 35
e 3 36
e 3 38
e 3 44
e 3 45
e 3 55
e 3 61
e 3 72
e 3 77
e 3 78
e 3 86
e 3 89
e 3 90
e 3 91
e 3 96
e 3 101
e 3 103
e 3 106
e 3 114
e 3 126
e 4 5
e 4 6
e 4 7
e 4 8
e 4 29
e 4 128
e 4 143
e 5 6
e 5 7
e 5 9
e 5 11
e 5 16
e 5 18
e 5 19
e 5 20
e 5 21
e 5 23
e 5 26
e 5 28
e 5 31
e 5 33
e 5 42
e 5 47
e 5 59
e 5 65
e 5 66
e 5 73
e 5 79
e 5 80
e 5 84
e 5 87
e 5 90
e 5 93
e 5 94
e 5 96
e 5 99
e 5 104
e 5 107
e 5 109
e 5 113
e 5 122
e 5 138
e 5 139
e 5 150
e 6 7
e 6 8
e 6 9
e 6 10
e 6 11
e 6 23
e 6 24
e 6 26
e 6 27
e 6 28
e 6 30
e 6 32
e 6 37
e 6 52
e 6 56
e 6 67
e 6 78
e 6 88
e 6 99
e 6 102
e 6 110
e 6 111
e 6 117
e 6 118
e 7 8
e 7 10
e 7 18
e 7 19
e 7 21
e 7 23
e 7 24
e 7 26
e 7 27
e 7 28
e 7 30
e 7 31
e 7 32
e 7 33
e 7 36
e 7 39
e 7 40
e 7 42
e 7 45
e 7 47
e 7 48
e 7 49
e 7 50
e 7 58
e 7 62
e 7 63
e 7 68
e 7 69
e 7 77
e 7 82
e 7 85
e 7 100
e 7 108
e 7 113
e 7 116
e 7 117
e 7 118
e 7 123
e 7 125
e 7 129
e 7 131
e 7 144
e 8 9
e 8 13
e 8 14
e 8 15
e 8 16
e 8 34
e 8 39
e 8 41
e 8 43
e 8 54
e 8 62
e 8 66
e 8 71
e 8 74
e 8 79
e 8 81
e 8 97
e 8 119
e 8 123
e 8 136
e 9 10
e 9 12
e 9 13
e 9 14
e 9 15
e 9 17
e 9 20
e 9 22
e 9 23
e 9 24
e 9 25
e 9 28
e 9 30
e 9 35
e 9 37
e 9 40
e 9 44
e 9 49
e 9 51
e 9 54
e 9 55
e 9 59
e 9 71
e 9 74
e 9 84
e 9 94
e 9 104
e 9 105
e 9 106
e 9 109
e 9 121
e 9 125
e 9 127
e 9 144
e 9 148
e 10 11
e 10 12
e 10 14
e 10 15
e 10 17
e 10 18
e 10 20
e 10 29
e 10 30
e 10 34
e 10 45
e 10 53
e 10 58
e 10 59
e 10 75
e 10 85
e 10 93
e 10 100
e 10 110
e 10 116
e 10 121
e 10 127
e 10 129
e 10 132
e 10 150
e 11 12
e 11 13
e 11 80
e 11 86
e 11 91
e 11 101
e 12 15
e 12 25
e 12 46
e 12 106
e 12 137
e 12 139
e 13 21
e 13 64
e 13 65
e 13 68
e 13 73
e 13 117
e 14 16
e 14 27
e 14 64
e 14 69
e 14 71
e 14 142
e 15 20
e 15 32
e 15 37
e 15 47
e 15 49
e 15 50
e 15 70
e 15 77
e 15 92
e 15 150
e 16 17
e 16 18
e 16 44
e 16 55
e 16 64
e 16 66
e 16 79
e 16 85
e 16 92
e 16 115
e 16 118
e 16 120
e 16 138
e 16 145
e 17 42
e 17 51
e 17 53
e 17 69
e 17 70
e 17 135
e 17 141
e 17 149
e 18 19
e 18 29
e 18 36
e 18 99
e 18 128
e 19 22
e 19 31
e 19 38
e 19 45
e 19 47
e 19 50
e 19 52
e 19 69
e 19 125
e 19 134
e 19 139
e 19 147
e 20 34
e 20 37
e 20 39
e 20 43
e 20 48
e 20 53
e 20 56
e 20 58
e 21 41
e 21 46
e 21 60
e 21 81
e 21 111
e 21 113
e 22 63
e 22 98
e 23 25
e 23 26
e 23 46
e 23 55
e 23 75
e 23 83
e 23 85
e 23 93
e 23 101
e 24 34
e 24 56
e 24 83
e 24 140
e 25 84
e 25 149
e 26 60
e 26 66
e 26 95
e 26 107
e 26 110
e 26 112
e 26 130
e 27 29
e 27 35
e 27 42
e 27 50
e 27 54
e 27 116
e 27 128
e 27 132
e 28 57
e 28 87
e 28 89
e 28 90
e 28 98
e 28 131
e 29 32
e 29 60
e 29 80
e 29 83
e 30 33
e 30 40
e 30 43
e 30 72
e 30 79
e 30 91
e 30 102
e 30 119
e 31 33
e 31 36
e 31 51
e 31 54
e 31 58
e 31 60
e 31 75
e 31 95
e 31 98
e 31 105
e 31 109
e 31 114
e 31 115
e 31 125
e 31 126
e 31 135
e 31 145
e 32 38
e 32 41
e 32 61
e 32 65
e 32 68
e 32 138
e 33 44
e 33 91
e 33 111
e 33 132
e 34 35
e 34 52
e 34 73
e 34 88
e 34 140
e 35 75
e 35 82
e 35 87
e 35 112
e 35 119
e 36 38
e 36 39
e 36 56
e 36 57
e 36 67
e 36 80
e 36 108
e 36 136
e 36 142
e 37 40
e 37 64
e 37 103
e 37 127
e 37 146
e 39 76
e 40 43
e 40 97
e 40 101
e 41 46
e 41 48
e 41 52
e 41 57
e 42 63
e 42 72
e 42 76
e 42 120
e 42 124
e 43 81
e 43 107
e 44 51
e 44 53
e 44 62
e 44 70
e 44 78
e 44 86
e 44 88
e 44 93
e 44 95
e 44 98
e 44 114
e 45 48
e 45 49
e 45 110
e 45 124
e 45 134
e 45 146
e 46 78
e 46 99
e 46 107
e 47 73
e 47 74
e 49 65
e 50 147
e 51 82
e 51 129
e 51 136
e 53 61
e 53 108
e 53 131
e 53 140
e 53 141
e 54 63
e 54 88
e 54 124
e 54 136
e 54 150
e 55 61
e 55 71
e 55 76
e 55 112
e 56 59
e 56 62
e 56 120
e 58 72
e 58 74
e 58 76
e 58 77
e 58 89
e 58 104
e 58 124
e 58 137
e 59 68
e 59 97
e 59 123
e 59 143
e 61 139
e 61 143
e 62 105
e 62 116
e 63 70
e 63 100
e 63 135
e 65 128
e 66 134
e 67 83
e 67 133
e 68 96
e 69 82
e 69 95
e 69 102
e 69 106
e 69 122
e 69 133
e 70 81
e 70 86
e 70 96
e 71 113
e 71 133
e 72 94
e 72 144
e 74 117
e 76 89
e 77 103
e 79 92
e 79 121
e 81 87
e 83 90
e 84 112
e 84 114
e 84 138
e 84 146
e 85 147
e 86 104
e 86 137
e 86 143
e 88 119
e 88 127
e 89 105
e 90 102
e 90 103
e 90 140
e 91 92
e 91 100
e 91 118
e 92 123
e 93 130
e 94 97
e 94 146
e 98 109
e 98 129
e 99 108
e 100 121
e 102 148
e 102 149
e 105 141
e 107 115
e 107 130
e 108 132
e 108 133
e 108 141
e 111 122
e 111 147
e 112 126
e 112 131
e 116 135
e 118 122
e 119 120
e 119 142
e 122 126
e 124 134
e 124 145
e 124 148
e 127 142
e 128 144
e 128 148
e 128 149
e 134 137
e 138 145
